c nIsolatedPIs 0
c maxPI 32
p cnf 175 430
c gate 33 -11 -27 0
-11 -33 0
-27 -33 0
11 27 33 0
c gate 34 11 27 0
11 -34 0
27 -34 0
-11 -27 34 0
c gate 35 -10 -26 0
-10 -35 0
-26 -35 0
10 26 35 0
c gate 36 8 24 0
8 -36 0
24 -36 0
-8 -24 36 0
c gate 37 -8 -24 0
-8 -37 0
-24 -37 0
8 24 37 0
c gate 38 -36 -37 0
-36 -38 0
-37 -38 0
36 37 38 0
c gate 39 7 -23 0
7 -39 0
-23 -39 0
-7 23 39 0
c gate 40 -7 23 0
-7 -40 0
23 -40 0
7 -23 40 0
c gate 41 -39 -40 0
-39 -41 0
-40 -41 0
39 40 41 0
c gate 42 2 18 0
2 -42 0
18 -42 0
-2 -18 42 0
c gate 43 1 17 0
1 -43 0
17 -43 0
-1 -17 43 0
c gate 44 -42 -43 0
-42 -44 0
-43 -44 0
42 43 44 0
c gate 45 -2 -18 0
-2 -45 0
-18 -45 0
2 18 45 0
c gate 46 -3 -19 0
-3 -46 0
-19 -46 0
3 19 46 0
c gate 47 -45 -46 0
-45 -47 0
-46 -47 0
45 46 47 0
c gate 48 -44 47 0
-44 -48 0
47 -48 0
44 -47 48 0
c gate 49 4 20 0
4 -49 0
20 -49 0
-4 -20 49 0
c gate 50 3 19 0
3 -50 0
19 -50 0
-3 -19 50 0
c gate 51 -49 -50 0
-49 -51 0
-50 -51 0
49 50 51 0
c gate 52 -48 51 0
-48 -52 0
51 -52 0
48 -51 52 0
c gate 53 -5 -21 0
-5 -53 0
-21 -53 0
5 21 53 0
c gate 54 -4 -20 0
-4 -54 0
-20 -54 0
4 20 54 0
c gate 55 -53 -54 0
-53 -55 0
-54 -55 0
53 54 55 0
c gate 56 -52 55 0
-52 -56 0
55 -56 0
52 -55 56 0
c gate 57 6 -22 0
6 -57 0
-22 -57 0
-6 22 57 0
c gate 58 -6 22 0
-6 -58 0
22 -58 0
6 -22 58 0
c gate 59 -57 -58 0
-57 -59 0
-58 -59 0
57 58 59 0
c gate 60 5 21 0
5 -60 0
21 -60 0
-5 -21 60 0
c gate 61 -59 -60 0
-59 -61 0
-60 -61 0
59 60 61 0
c gate 62 -56 61 0
-56 -62 0
61 -62 0
56 -61 62 0
c gate 63 -6 -22 0
-6 -63 0
-22 -63 0
6 22 63 0
c gate 64 -62 -63 0
-62 -64 0
-63 -64 0
62 63 64 0
c gate 65 -41 -64 0
-41 -65 0
-64 -65 0
41 64 65 0
c gate 66 38 65 0
38 -66 0
65 -66 0
-38 -65 66 0
c gate 67 -7 -23 0
-7 -67 0
-23 -67 0
7 23 67 0
c gate 68 -36 67 0
-36 -68 0
67 -68 0
36 -67 68 0
c gate 69 -9 -25 0
-9 -69 0
-25 -69 0
9 25 69 0
c gate 70 -37 -69 0
-37 -70 0
-69 -70 0
37 69 70 0
c gate 71 -68 70 0
-68 -71 0
70 -71 0
68 -70 71 0
c gate 72 -66 71 0
-66 -72 0
71 -72 0
66 -71 72 0
c gate 73 9 25 0
9 -73 0
25 -73 0
-9 -25 73 0
c gate 74 10 26 0
10 -74 0
26 -74 0
-10 -26 74 0
c gate 75 -73 -74 0
-73 -75 0
-74 -75 0
73 74 75 0
c gate 76 -72 75 0
-72 -76 0
75 -76 0
72 -75 76 0
c gate 77 -35 -76 0
-35 -77 0
-76 -77 0
35 76 77 0
c gate 78 -34 -77 0
-34 -78 0
-77 -78 0
34 77 78 0
c gate 79 -33 -78 0
-33 -79 0
-78 -79 0
33 78 79 0
c gate 80 12 28 0
12 -80 0
28 -80 0
-12 -28 80 0
c gate 81 -12 -28 0
-12 -81 0
-28 -81 0
12 28 81 0
c gate 82 -80 -81 0
-80 -82 0
-81 -82 0
80 81 82 0
c gate 83 79 82 0
79 -83 0
82 -83 0
-79 -82 83 0
c gate 84 -39 -57 0
-39 -84 0
-57 -84 0
39 57 84 0
c gate 85 -2 18 0
-2 -85 0
18 -85 0
2 -18 85 0
c gate 86 -1 17 0
-1 -86 0
17 -86 0
1 -17 86 0
c gate 87 -85 -86 0
-85 -87 0
-86 -87 0
85 86 87 0
c gate 88 2 -18 0
2 -88 0
-18 -88 0
-2 18 88 0
c gate 89 3 -19 0
3 -89 0
-19 -89 0
-3 19 89 0
c gate 90 -88 -89 0
-88 -90 0
-89 -90 0
88 89 90 0
c gate 91 -87 90 0
-87 -91 0
90 -91 0
87 -90 91 0
c gate 92 -4 20 0
-4 -92 0
20 -92 0
4 -20 92 0
c gate 93 -3 19 0
-3 -93 0
19 -93 0
3 -19 93 0
c gate 94 -92 -93 0
-92 -94 0
-93 -94 0
92 93 94 0
c gate 95 -91 94 0
-91 -95 0
94 -95 0
91 -94 95 0
c gate 96 5 -21 0
5 -96 0
-21 -96 0
-5 21 96 0
c gate 97 4 -20 0
4 -97 0
-20 -97 0
-4 20 97 0
c gate 98 -96 -97 0
-96 -98 0
-97 -98 0
96 97 98 0
c gate 99 -95 98 0
-95 -99 0
98 -99 0
95 -98 99 0
c gate 100 -5 21 0
-5 -100 0
21 -100 0
5 -21 100 0
c gate 101 59 -100 0
59 -101 0
-100 -101 0
-59 100 101 0
c gate 102 -99 101 0
-99 -102 0
101 -102 0
99 -101 102 0
c gate 103 84 -102 0
84 -103 0
-102 -103 0
-84 102 103 0
c gate 104 -40 -103 0
-40 -104 0
-103 -104 0
40 103 104 0
c gate 105 -38 104 0
-38 -105 0
104 -105 0
38 -104 105 0
c gate 106 -41 102 0
-41 -106 0
102 -106 0
41 -102 106 0
c gate 107 -71 75 0
-71 -107 0
75 -107 0
71 -75 107 0
c gate 108 -33 -35 0
-33 -108 0
-35 -108 0
33 35 108 0
c gate 109 82 108 0
82 -109 0
108 -109 0
-82 -108 109 0
c gate 110 -107 109 0
-107 -110 0
109 -110 0
107 -109 110 0
c gate 111 -79 110 0
-79 -111 0
110 -111 0
79 -110 111 0
c gate 112 66 111 0
66 -112 0
111 -112 0
-66 -111 112 0
c gate 113 -13 -29 0
-13 -113 0
-29 -113 0
13 29 113 0
c gate 114 -81 -113 0
-81 -114 0
-113 -114 0
81 113 114 0
c gate 115 79 114 0
79 -115 0
114 -115 0
-79 -114 115 0
c gate 116 13 29 0
13 -116 0
29 -116 0
-13 -29 116 0
c gate 117 -80 -116 0
-80 -117 0
-116 -117 0
80 116 117 0
c gate 118 -113 -117 0
-113 -118 0
-117 -118 0
113 117 118 0
c gate 119 15 -31 0
15 -119 0
-31 -119 0
-15 31 119 0
c gate 120 -15 31 0
-15 -120 0
31 -120 0
15 -31 120 0
c gate 121 -119 -120 0
-119 -121 0
-120 -121 0
119 120 121 0
c gate 122 -16 -32 0
-16 -122 0
-32 -122 0
16 32 122 0
c gate 123 16 32 0
16 -123 0
32 -123 0
-16 -32 123 0
c gate 124 -122 -123 0
-122 -124 0
-123 -124 0
122 123 124 0
c gate 125 -14 -30 0
-14 -125 0
-30 -125 0
14 30 125 0
c gate 126 14 30 0
14 -126 0
30 -126 0
-14 -30 126 0
c gate 127 -125 -126 0
-125 -127 0
-126 -127 0
125 126 127 0
c gate 128 124 127 0
124 -128 0
127 -128 0
-124 -127 128 0
c gate 129 -121 128 0
-121 -129 0
128 -129 0
121 -128 129 0
c gate 130 -118 129 0
-118 -130 0
129 -130 0
118 -129 130 0
c gate 131 115 130 0
115 -131 0
130 -131 0
-115 -130 131 0
c gate 132 83 -131 0
83 -132 0
-131 -132 0
-83 131 132 0
c gate 133 -112 -132 0
-112 -133 0
-132 -133 0
112 132 133 0
c gate 134 -102 -133 0
-102 -134 0
-133 -134 0
102 133 134 0
c gate 135 -106 -134 0
-106 -135 0
-134 -135 0
106 134 135 0
c gate 136 -105 -135 0
-105 -136 0
-135 -136 0
105 135 136 0
c gate 137 38 84 0
38 -137 0
84 -137 0
-38 -84 137 0
c gate 138 104 137 0
104 -138 0
137 -138 0
-104 -137 138 0
c gate 139 -69 -73 0
-69 -139 0
-73 -139 0
69 73 139 0
c gate 140 -35 -74 0
-35 -140 0
-74 -140 0
35 74 140 0
c gate 141 -139 -140 0
-139 -141 0
-140 -141 0
139 140 141 0
c gate 142 105 -141 0
105 -142 0
-141 -142 0
-105 141 142 0
c gate 143 -138 -142 0
-138 -143 0
-142 -143 0
138 142 143 0
c gate 144 -136 143 0
-136 -144 0
143 -144 0
136 -143 144 0
c gate 145 -9 25 0
-9 -145 0
25 -145 0
9 -25 145 0
c gate 146 8 -24 0
8 -146 0
-24 -146 0
-8 24 146 0
c gate 147 -139 -146 0
-139 -147 0
-146 -147 0
139 146 147 0
c gate 148 -105 147 0
-105 -148 0
147 -148 0
105 -147 148 0
c gate 149 -145 -148 0
-145 -149 0
-148 -149 0
145 148 149 0
c gate 150 -33 -34 0
-33 -150 0
-34 -150 0
33 34 150 0
c gate 151 -140 150 0
-140 -151 0
150 -151 0
140 -150 151 0
c gate 152 147 151 0
147 -152 0
151 -152 0
-147 -151 152 0
c gate 153 149 152 0
149 -153 0
152 -153 0
-149 -152 153 0
c gate 154 144 -153 0
144 -154 0
-153 -154 0
-144 153 154 0
c gate 155 -10 26 0
-10 -155 0
26 -155 0
10 -26 155 0
c gate 156 149 -155 0
149 -156 0
-155 -156 0
-149 155 156 0
c gate 157 10 -26 0
10 -157 0
-26 -157 0
-10 26 157 0
c gate 158 -150 -157 0
-150 -158 0
-157 -158 0
150 157 158 0
c gate 159 -156 158 0
-156 -159 0
158 -159 0
156 -158 159 0
c gate 160 -154 -159 0
-154 -160 0
-159 -160 0
154 159 160 0
c gate 161 -82 -124 0
-82 -161 0
-124 -161 0
82 124 161 0
c gate 162 -113 -116 0
-113 -162 0
-116 -162 0
113 116 162 0
c gate 163 121 -127 0
121 -163 0
-127 -163 0
-121 127 163 0
c gate 164 -162 163 0
-162 -164 0
163 -164 0
162 -163 164 0
c gate 165 161 164 0
161 -165 0
164 -165 0
-161 -164 165 0
c gate 166 159 165 0
159 -166 0
165 -166 0
-159 -165 166 0
c gate 167 -160 -166 0
-160 -167 0
-166 -167 0
160 166 167 0
c gate 168 -62 -65 0
-62 -168 0
-65 -168 0
62 65 168 0
c gate 169 -167 -168 0
-167 -169 0
-168 -169 0
167 168 169 0
c gate 170 83 -169 0
83 -170 0
-169 -170 0
-83 169 170 0
c gate 171 -111 -168 0
-111 -171 0
-168 -171 0
111 168 171 0
c gate 172 -83 -171 0
-83 -172 0
-171 -172 0
83 171 172 0
c gate 173 -167 -172 0
-167 -173 0
-172 -173 0
167 172 173 0
c gate 174 -83 173 0
-83 -174 0
173 -174 0
83 -173 174 0
c gate 175 -170 -174 0
-170 -175 0
-174 -175 0
170 174 175 0
c PO
-175 0
